
Gurobi 9.1.2 (win64) logging started Tue Dec  7 09:55:00 2021

Gurobi Optimizer version 9.1.2 build v9.1.2rc0 (win64)
Thread count: 8 physical cores, 8 logical processors, using up to 8 threads
Optimize a model with 1 rows, 76 columns and 75 nonzeros
Model fingerprint: 0x5b252fd0
Variable types: 1 continuous, 75 integer (75 binary)
Coefficient statistics:
  Matrix range     [1e+00, 1e+01]
  Objective range  [1e+00, 1e+00]
  Bounds range     [2e+01, 2e+01]
  RHS range        [1e+01, 1e+01]
Presolve time: 0.00s
Presolved: 1 rows, 76 columns, 75 nonzeros
Variable types: 1 continuous, 75 integer (75 binary)

Root simplex log...

Iteration    Objective       Primal Inf.    Dual Inf.      Time
       0   -2.2134567e+01   2.649898e-01   0.000000e+00     15s
       5   -1.6295301e+01   0.000000e+00   0.000000e+00     15s

Root relaxation: objective -1.629530e+01, 5 iterations, 0.00 seconds

    Nodes    |    Current Node    |     Objective Bounds      |     Work
 Expl Unexpl |  Obj  Depth IntInf | Incumbent    BestBd   Gap | It/Node Time

     0     0  -16.29530    0    1          -  -16.29530      -     -   14s
H    0     0                       0.8209125  -16.29530  2085%     -   15s
H    0     0                       0.8173353  -16.29530  2094%     -   16s
     0     0  -10.34994    0    5    0.81734  -10.34994  1366%     -   16s
H    0     0                       0.7937809  -10.34994  1404%     -   18s
     0     0   -9.36894    0    8    0.79378   -9.36894  1280%     -   18s
H    0     0                       0.7937809   -9.36894  1280%     -   18s
     0     0   -9.29640    0    8    0.79378   -9.29640  1271%     -   18s
     0     0   -8.94785    0    9    0.79378   -8.94785  1227%     -   18s
     0     0   -8.82706    0    9    0.79378   -8.82706  1212%     -   18s
     0     0   -8.82616    0    9    0.79378   -8.82616  1212%     -   18s
     0     0   -8.82185    0   10    0.79378   -8.82185  1211%     -   18s
     0     0   -8.81233    0   10    0.79378   -8.81233  1210%     -   18s
     0     0   -8.78442    0   10    0.79378   -8.78442  1207%     -   18s
     0     0   -8.78166    0   10    0.79378   -8.78166  1206%     -   18s
     0     0   -8.75692    0    9    0.79378   -8.75692  1203%     -   18s
H    0     0                       0.7701994   -8.75692  1237%     -   19s
H    0     0                       0.7701994   -8.75692  1237%     -   19s
     0     2   -8.04958    0    9    0.77020   -8.04958  1145%     -   19s
   382     0    0.74049   16    2    0.77020    0.25659  66.7%   3.0   24s

Cutting planes:
  Cover: 1
  Clique: 1
  MIR: 5
  Lazy constraints: 77

Explored 393 nodes (1216 simplex iterations) in 24.31 seconds
Thread count was 8 (of 8 available processors)

Solution count 5: 0.770199 0.770199 0.793781 ... 0.820913

Optimal solution found (tolerance 1.00e-04)
Best objective 7.701993923435e-01, best bound 7.701993923435e-01, gap 0.0000%

User-callback calls 1029, time in user-callback 28.07 sec
